NAME: I26235-n91-k9
COMMENT : (Fake et al, No of trucks: 9, Optimal value: )
TYPE : CVRP
DIMENSION : 91
EDGE_WEIGHT_TYPE : EUC_2D
CAPACITY : 11
NODE_COORD_SECTION
1 177 355
2 405 7
3 414 369
4 191 908
5 367 888
6 66 436
7 932 660
8 191 682
9 398 529
10 162 625
11 665 114
12 315 331
13 860 769
14 97 126
15 208 872
16 947 888
17 257 670
18 936 642
19 173 598
20 959 910
21 84 861
22 952 904
23 166 638
24 882 353
25 45 744
26 109 566
27 866 630
28 774 169
29 470 707
30 223 569
31 881 904
32 410 383
33 66 185
34 941 952
35 54 918
36 200 690
37 792 932
38 279 52
39 337 493
40 826 96
41 4 292
42 488 136
43 435 638
44 909 322
45 390 325
46 691 889
47 314 958
48 986 722
49 672 650
50 990 491
51 515 383
52 287 357
53 163 573
54 351 725
55 692 314
56 277 326
57 588 927
58 420 501
59 517 858
60 668 249
61 76 51
62 499 335
63 604 118
64 87 384
65 37 17
66 987 524
67 494 993
68 757 33
69 619 268
70 401 468
71 881 733
72 769 189
73 609 794
74 716 78
75 11 572
76 107 548
77 892 21
78 989 23
79 805 287
80 512 569
81 887 82
82 77 844
83 390 819
84 204 275
85 285 450
86 583 799
87 74 927
88 152 962
89 518 516
90 904 477
91 551 976
DEMAND_SECTION
1 0
2 1
3 1
4 1
5 1
6 1
7 1
8 1
9 1
10 1
11 1
12 1
13 1
14 1
15 1
16 1
17 1
18 1
19 1
20 1
21 1
22 1
23 1
24 1
25 1
26 1
27 1
28 1
29 1
30 1
31 1
32 1
33 1
34 1
35 1
36 1
37 1
38 1
39 1
40 1
41 1
42 1
43 1
44 1
45 1
46 1
47 1
48 1
49 1
50 1
51 1
52 1
53 1
54 1
55 1
56 1
57 1
58 1
59 1
60 1
61 1
62 1
63 1
64 1
65 1
66 1
67 1
68 1
69 1
70 1
71 1
72 1
73 1
74 1
75 1
76 1
77 1
78 1
79 1
80 1
81 1
82 1
83 1
84 1
85 1
86 1
87 1
88 1
89 1
90 1
91 1
DEPOT_SECTION
 1
 -1
 EOF 